c v 8
c e 0 1 348
c e 0 2 321
c e 0 3 295
c e 0 4 270
c e 0 5 247
c e 0 6 227
c e 0 7 205
c e 1 2 184
c e 1 3 164
c e 1 4 145
c e 1 5 129
c e 1 6 113
c e 1 7 97
c e 2 3 83
c e 2 4 70
c e 2 5 61
c e 2 6 51
c e 2 7 40
c e 3 4 31
c e 3 5 24
c e 3 6 16
c e 3 7 12
c e 4 5 8
c e 4 6 1
c e 4 7 6
c e 5 6 4
c e 5 7 2
c e 6 7 9
p cnf 374 1139
1 2 3 0
-1 -2 3 0
1 4 5 0
-1 -4 5 0
1 6 7 0
-1 -6 7 0
8 9 10 0
-8 -9 10 0
8 1 11 0
-8 -1 11 0
12 2 13 0
-12 -2 13 0
12 6 14 0
-12 -6 14 0
12 1 15 0
-12 -1 15 0
16 9 17 0
-16 -9 17 0
16 2 18 0
-16 -2 18 0
16 4 19 0
-16 -4 19 0
16 6 20 0
-16 -6 20 0
16 1 21 0
-16 -1 21 0
16 8 22 0
-16 -8 22 0
16 12 23 0
-16 -12 23 0
24 4 25 0
-24 -4 25 0
24 6 26 0
-24 -6 26 0
24 1 27 0
-24 -1 27 0
24 8 28 0
-24 -8 28 0
24 12 29 0
-24 -12 29 0
24 16 30 0
-24 -16 30 0
31 9 32 0
-31 -9 32 0
31 2 33 0
-31 -2 33 0
31 4 34 0
-31 -4 34 0
31 6 35 0
-31 -6 35 0
31 1 36 0
-31 -1 36 0
31 12 37 0
-31 -12 37 0
31 16 38 0
-31 -16 38 0
31 24 39 0
-31 -24 39 0
40 9 41 0
-40 -9 41 0
40 2 42 0
-40 -2 42 0
40 4 43 0
-40 -4 43 0
40 6 44 0
-40 -6 44 0
40 1 45 0
-40 -1 45 0
40 8 46 0
-40 -8 46 0
40 12 47 0
-40 -12 47 0
40 16 48 0
-40 -16 48 0
40 24 49 0
-40 -24 49 0
40 31 50 0
-40 -31 50 0
51 4 52 0
-51 -4 52 0
51 6 53 0
-51 -6 53 0
51 1 54 0
-51 -1 54 0
51 8 55 0
-51 -8 55 0
51 12 56 0
-51 -12 56 0
51 16 57 0
-51 -16 57 0
51 24 58 0
-51 -24 58 0
51 31 59 0
-51 -31 59 0
51 40 60 0
-51 -40 60 0
61 1 62 0
-61 -1 62 0
61 8 63 0
-61 -8 63 0
61 12 64 0
-61 -12 64 0
61 16 65 0
-61 -16 65 0
61 24 66 0
-61 -24 66 0
61 31 67 0
-61 -31 67 0
61 40 68 0
-61 -40 68 0
61 51 69 0
-61 -51 69 0
70 9 71 0
-70 -9 71 0
70 2 72 0
-70 -2 72 0
70 4 73 0
-70 -4 73 0
70 1 74 0
-70 -1 74 0
70 8 75 0
-70 -8 75 0
70 12 76 0
-70 -12 76 0
70 16 77 0
-70 -16 77 0
70 24 78 0
-70 -24 78 0
70 31 79 0
-70 -31 79 0
70 40 80 0
-70 -40 80 0
70 51 81 0
-70 -51 81 0
70 61 82 0
-70 -61 82 0
83 9 84 0
-83 -9 84 0
83 2 85 0
-83 -2 85 0
83 4 86 0
-83 -4 86 0
83 6 87 0
-83 -6 87 0
83 1 88 0
-83 -1 88 0
83 8 89 0
-83 -8 89 0
83 16 90 0
-83 -16 90 0
83 24 91 0
-83 -24 91 0
83 31 92 0
-83 -31 92 0
83 40 93 0
-83 -40 93 0
83 51 94 0
-83 -51 94 0
83 61 95 0
-83 -61 95 0
83 70 96 0
-83 -70 96 0
97 9 98 0
-97 -9 98 0
97 2 99 0
-97 -2 99 0
97 4 100 0
-97 -4 100 0
97 6 101 0
-97 -6 101 0
97 1 102 0
-97 -1 102 0
97 8 103 0
-97 -8 103 0
97 12 104 0
-97 -12 104 0
97 16 105 0
-97 -16 105 0
97 24 106 0
-97 -24 106 0
97 31 107 0
-97 -31 107 0
97 40 108 0
-97 -40 108 0
97 51 109 0
-97 -51 109 0
97 61 110 0
-97 -61 110 0
97 70 111 0
-97 -70 111 0
97 83 112 0
-97 -83 112 0
113 2 114 0
-113 -2 114 0
113 4 115 0
-113 -4 115 0
113 6 116 0
-113 -6 116 0
113 1 117 0
-113 -1 117 0
113 8 118 0
-113 -8 118 0
113 12 119 0
-113 -12 119 0
113 16 120 0
-113 -16 120 0
113 24 121 0
-113 -24 121 0
113 31 122 0
-113 -31 122 0
113 40 123 0
-113 -40 123 0
113 51 124 0
-113 -51 124 0
113 61 125 0
-113 -61 125 0
113 70 126 0
-113 -70 126 0
113 83 127 0
-113 -83 127 0
113 97 128 0
-113 -97 128 0
129 9 130 0
-129 -9 130 0
129 6 131 0
-129 -6 131 0
129 1 132 0
-129 -1 132 0
129 8 133 0
-129 -8 133 0
129 12 134 0
-129 -12 134 0
129 16 135 0
-129 -16 135 0
129 24 136 0
-129 -24 136 0
129 31 137 0
-129 -31 137 0
129 40 138 0
-129 -40 138 0
129 51 139 0
-129 -51 139 0
129 61 140 0
-129 -61 140 0
129 70 141 0
-129 -70 141 0
129 83 142 0
-129 -83 142 0
129 97 143 0
-129 -97 143 0
129 113 144 0
-129 -113 144 0
145 9 146 0
-145 -9 146 0
145 2 147 0
-145 -2 147 0
145 4 148 0
-145 -4 148 0
145 6 149 0
-145 -6 149 0
145 1 150 0
-145 -1 150 0
145 8 151 0
-145 -8 151 0
145 12 152 0
-145 -12 152 0
145 16 153 0
-145 -16 153 0
145 24 154 0
-145 -24 154 0
145 31 155 0
-145 -31 155 0
145 40 156 0
-145 -40 156 0
145 51 157 0
-145 -51 157 0
145 61 158 0
-145 -61 158 0
145 70 159 0
-145 -70 159 0
145 83 160 0
-145 -83 160 0
145 97 161 0
-145 -97 161 0
145 113 162 0
-145 -113 162 0
145 129 163 0
-145 -129 163 0
164 9 165 0
-164 -9 165 0
164 2 166 0
-164 -2 166 0
164 4 167 0
-164 -4 167 0
164 6 168 0
-164 -6 168 0
164 1 169 0
-164 -1 169 0
164 8 170 0
-164 -8 170 0
164 12 171 0
-164 -12 171 0
164 16 172 0
-164 -16 172 0
164 24 173 0
-164 -24 173 0
164 31 174 0
-164 -31 174 0
164 40 175 0
-164 -40 175 0
164 51 176 0
-164 -51 176 0
164 61 177 0
-164 -61 177 0
164 70 178 0
-164 -70 178 0
164 83 179 0
-164 -83 179 0
164 97 180 0
-164 -97 180 0
164 113 181 0
-164 -113 181 0
164 129 182 0
-164 -129 182 0
164 145 183 0
-164 -145 183 0
184 9 185 0
-184 -9 185 0
184 2 186 0
-184 -2 186 0
184 4 187 0
-184 -4 187 0
184 6 188 0
-184 -6 188 0
184 1 189 0
-184 -1 189 0
184 8 190 0
-184 -8 190 0
184 12 191 0
-184 -12 191 0
184 16 192 0
-184 -16 192 0
184 24 193 0
-184 -24 193 0
184 31 194 0
-184 -31 194 0
184 40 195 0
-184 -40 195 0
184 51 196 0
-184 -51 196 0
184 61 197 0
-184 -61 197 0
184 70 198 0
-184 -70 198 0
184 83 199 0
-184 -83 199 0
184 97 200 0
-184 -97 200 0
184 113 201 0
-184 -113 201 0
184 129 202 0
-184 -129 202 0
184 145 203 0
-184 -145 203 0
184 164 204 0
-184 -164 204 0
205 9 206 0
-205 -9 206 0
205 2 207 0
-205 -2 207 0
205 4 208 0
-205 -4 208 0
205 6 209 0
-205 -6 209 0
205 1 210 0
-205 -1 210 0
205 8 211 0
-205 -8 211 0
205 12 212 0
-205 -12 212 0
205 16 213 0
-205 -16 213 0
205 24 214 0
-205 -24 214 0
205 31 215 0
-205 -31 215 0
205 40 216 0
-205 -40 216 0
205 51 217 0
-205 -51 217 0
205 61 218 0
-205 -61 218 0
205 70 219 0
-205 -70 219 0
205 83 220 0
-205 -83 220 0
205 97 221 0
-205 -97 221 0
205 113 222 0
-205 -113 222 0
205 129 223 0
-205 -129 223 0
205 145 224 0
-205 -145 224 0
205 164 225 0
-205 -164 225 0
205 184 226 0
-205 -184 226 0
227 2 228 0
-227 -2 228 0
227 4 229 0
-227 -4 229 0
227 6 230 0
-227 -6 230 0
227 8 231 0
-227 -8 231 0
227 16 232 0
-227 -16 232 0
227 24 233 0
-227 -24 233 0
227 31 234 0
-227 -31 234 0
227 40 235 0
-227 -40 235 0
227 51 236 0
-227 -51 236 0
227 61 237 0
-227 -61 237 0
227 70 238 0
-227 -70 238 0
227 83 239 0
-227 -83 239 0
227 97 240 0
-227 -97 240 0
227 113 241 0
-227 -113 241 0
227 129 242 0
-227 -129 242 0
227 145 243 0
-227 -145 243 0
227 164 244 0
-227 -164 244 0
227 184 245 0
-227 -184 245 0
227 205 246 0
-227 -205 246 0
247 9 248 0
-247 -9 248 0
247 4 249 0
-247 -4 249 0
247 6 250 0
-247 -6 250 0
247 1 251 0
-247 -1 251 0
247 8 252 0
-247 -8 252 0
247 12 253 0
-247 -12 253 0
247 16 254 0
-247 -16 254 0
247 24 255 0
-247 -24 255 0
247 31 256 0
-247 -31 256 0
247 40 257 0
-247 -40 257 0
247 51 258 0
-247 -51 258 0
247 61 259 0
-247 -61 259 0
247 70 260 0
-247 -70 260 0
247 83 261 0
-247 -83 261 0
247 97 262 0
-247 -97 262 0
247 113 263 0
-247 -113 263 0
247 129 264 0
-247 -129 264 0
247 145 265 0
-247 -145 265 0
247 164 266 0
-247 -164 266 0
247 184 267 0
-247 -184 267 0
247 205 268 0
-247 -205 268 0
247 227 269 0
-247 -227 269 0
270 9 271 0
-270 -9 271 0
270 2 272 0
-270 -2 272 0
270 4 273 0
-270 -4 273 0
270 6 274 0
-270 -6 274 0
270 1 275 0
-270 -1 275 0
270 8 276 0
-270 -8 276 0
270 12 277 0
-270 -12 277 0
270 16 278 0
-270 -16 278 0
270 24 279 0
-270 -24 279 0
270 31 280 0
-270 -31 280 0
270 40 281 0
-270 -40 281 0
270 51 282 0
-270 -51 282 0
270 61 283 0
-270 -61 283 0
270 70 284 0
-270 -70 284 0
270 83 285 0
-270 -83 285 0
270 97 286 0
-270 -97 286 0
270 113 287 0
-270 -113 287 0
270 129 288 0
-270 -129 288 0
270 145 289 0
-270 -145 289 0
270 164 290 0
-270 -164 290 0
270 184 291 0
-270 -184 291 0
270 205 292 0
-270 -205 292 0
270 227 293 0
-270 -227 293 0
270 247 294 0
-270 -247 294 0
295 9 296 0
-295 -9 296 0
295 2 297 0
-295 -2 297 0
295 4 298 0
-295 -4 298 0
295 6 299 0
-295 -6 299 0
295 1 300 0
-295 -1 300 0
295 8 301 0
-295 -8 301 0
295 12 302 0
-295 -12 302 0
295 16 303 0
-295 -16 303 0
295 24 304 0
-295 -24 304 0
295 31 305 0
-295 -31 305 0
295 40 306 0
-295 -40 306 0
295 51 307 0
-295 -51 307 0
295 61 308 0
-295 -61 308 0
295 70 309 0
-295 -70 309 0
295 83 310 0
-295 -83 310 0
295 97 311 0
-295 -97 311 0
295 113 312 0
-295 -113 312 0
295 129 313 0
-295 -129 313 0
295 145 314 0
-295 -145 314 0
295 164 315 0
-295 -164 315 0
295 184 316 0
-295 -184 316 0
295 205 317 0
-295 -205 317 0
295 227 318 0
-295 -227 318 0
295 247 319 0
-295 -247 319 0
295 270 320 0
-295 -270 320 0
321 9 322 0
-321 -9 322 0
321 2 323 0
-321 -2 323 0
321 4 324 0
-321 -4 324 0
321 6 325 0
-321 -6 325 0
321 1 326 0
-321 -1 326 0
321 8 327 0
-321 -8 327 0
321 12 328 0
-321 -12 328 0
321 16 329 0
-321 -16 329 0
321 24 330 0
-321 -24 330 0
321 31 331 0
-321 -31 331 0
321 40 332 0
-321 -40 332 0
321 51 333 0
-321 -51 333 0
321 61 334 0
-321 -61 334 0
321 70 335 0
-321 -70 335 0
321 83 336 0
-321 -83 336 0
321 97 337 0
-321 -97 337 0
321 113 338 0
-321 -113 338 0
321 129 339 0
-321 -129 339 0
321 145 340 0
-321 -145 340 0
321 164 341 0
-321 -164 341 0
321 184 342 0
-321 -184 342 0
321 205 343 0
-321 -205 343 0
321 227 344 0
-321 -227 344 0
321 247 345 0
-321 -247 345 0
321 270 346 0
-321 -270 346 0
321 295 347 0
-321 -295 347 0
348 9 349 0
-348 -9 349 0
348 2 350 0
-348 -2 350 0
348 4 351 0
-348 -4 351 0
348 6 352 0
-348 -6 352 0
348 1 353 0
-348 -1 353 0
348 8 354 0
-348 -8 354 0
348 12 355 0
-348 -12 355 0
348 16 356 0
-348 -16 356 0
348 24 357 0
-348 -24 357 0
348 31 358 0
-348 -31 358 0
348 40 359 0
-348 -40 359 0
348 51 360 0
-348 -51 360 0
348 61 361 0
-348 -61 361 0
348 70 362 0
-348 -70 362 0
348 83 363 0
-348 -83 363 0
348 113 364 0
-348 -113 364 0
348 129 365 0
-348 -129 365 0
348 145 366 0
-348 -145 366 0
348 164 367 0
-348 -164 367 0
348 184 368 0
-348 -184 368 0
348 205 369 0
-348 -205 369 0
348 227 370 0
-348 -227 370 0
348 247 371 0
-348 -247 371 0
348 270 372 0
-348 -270 372 0
348 295 373 0
-348 -295 373 0
348 321 374 0
-348 -321 374 0
113 -1 -14 -29 -32 -90 -111 -112 -121 -143 -157 -158 -167 -175 -201 -211 -223 -246 -267 -290 -297 -314 -345 -373 0
145 -16 -26 -48 -56 -69 -79 -96 -114 -143 -154 -177 -190 -208 -223 -246 -263 -290 -316 -340 -371 0
348 -16 -43 -49 -72 -94 -105 -107 -141 -142 -146 -168 -181 -195 -221 -244 -264 -293 -314 -327 -353 0
348 -12 -36 -53 -68 -76 -89 -112 -122 -139 -153 -181 -185 -193 -218 -240 -268 -291 -313 -323 -351 0
270 -24 -69 -72 -87 -110 -112 -118 -132 -154 -174 -181 -191 -221 -244 -269 -273 -313 -322 -356 0
24 -12 -22 -27 -33 -48 -58 -69 -71 -86 -225 -226 -243 -246 -269 -286 -287 -313 -320 -347 0
-12 4 -17 -30 -46 -53 -67 -88 -112 -125 -139 -159 -175 -222 -244 -262 -291 -313 -340 -374 0
-40 1 -53 -63 -82 -94 -119 -137 -160 -180 -193 -213 -225 -246 -265 -291 -312 -339 -373 0
-31 24 -68 -77 -86 -125 -126 -134 -155 -161 -170 -189 -224 -241 -268 -288 -297 -322 -352 0
-16 6 -48 -56 -75 -92 -95 -100 -114 -142 -163 -173 -178 -204 -246 -320 -345 -347 -374 0
145 -12 -33 -46 -66 -79 -111 -142 -156 -177 -204 -210 -254 -258 -271 -298 -312 -347 -371 0
270 -51 -67 -78 -104 -125 -135 -160 -178 -221 -241 -243 -269 -288 -291 -320 -341 -374 0
129 -51 -75 -85 -112 -125 -130 -155 -171 -181 -193 -217 -244 -269 -275 -313 -324 -356 0
-40 6 -54 -63 -82 -94 -104 -120 -137 -160 -193 -221 -244 -265 -291 -312 -339 -373 0
1 -6 -5 -10 -29 -30 -39 -110 -111 -128 -138 -139 -163 -179 -268 -269 -294 -374 0
184 -61 -94 -101 -118 -135 -163 -169 -198 -199 -212 -233 -266 -289 -320 -342 -358 0
-61 1 -82 -90 -108 -126 -131 -161 -171 -185 -222 -231 -269 -288 -304 -324 -350 0
247 -51 -78 -86 -119 -141 -155 -161 -169 -190 -224 -246 -257 -287 -296 -323 -352 0
61 -51 -66 -85 -109 -128 -135 -165 -187 -219 -224 -234 -246 -269 -299 -327 -353 0
295 -40 -55 -73 -85 -106 -124 -140 -159 -179 -225 -243 -267 -287 -311 -339 -374 0
348 -61 -91 -110 -111 -127 -147 -167 -188 -202 -221 -234 -267 -294 -300 -340 -354 0
164 -70 -91 -111 -125 -139 -160 -175 -223 -240 -266 -287 -291 -320 -340 -374 0
-70 40 -85 -111 -122 -139 -161 -170 -188 -222 -232 -269 -288 -298 -322 -353 0
-61 8 -72 -109 -128 -132 -146 -187 -220 -225 -234 -246 -269 -277 -330 -356 0
-16 2 -39 -45 -53 -67 -82 -89 -128 -182 -183 -204 -246 -319 -320 -347 0
-8 6 -49 -50 -64 -68 -82 -100 -132 -146 -176 -192 -268 -294 -347 -370 0
-83 9 -111 -123 -142 -147 -176 -201 -211 -242 -255 -294 -298 -340 -361 0
-70 12 -93 -102 -144 -153 -176 -185 -211 -242 -269 -279 -308 -323 -351 0
-70 6 -93 -105 -144 -150 -176 -185 -214 -242 -269 -276 -308 -323 -351 0
321 -70 -104 -121 -135 -160 -174 -221 -242 -263 -289 -291 -320 -341 -374 0
-61 1 -73 -108 -128 -131 -147 -185 -220 -225 -246 -256 -279 -329 -355 0
113 -51 -78 -95 -104 -120 -137 -142 -163 -178 -204 -294 -320 -347 -374 0
-51 1 -71 -107 -112 -128 -152 -192 -211 -218 -246 -272 -313 -324 -357 0
-51 9 -74 -104 -112 -128 -155 -192 -207 -218 -246 -276 -313 -324 -357 0
-51 1 -71 -103 -110 -128 -147 -187 -215 -220 -246 -266 -277 -329 -357 0
-40 16 -56 -66 -95 -102 -116 -133 -141 -182 -194 -246 -319 -347 -372 0
145 -31 -99 -115 -136 -163 -170 -216 -236 -261 -267 -294 -308 -309 -373 0
270 -24 -35 -80 -96 -105 -146 -169 -196 -214 -242 -272 -301 -334 -351 0
-24 2 -109 -112 -123 -128 -140 -181 -210 -215 -246 -252 -299 -340 -362 0
-24 4 -109 -112 -123 -125 -143 -181 -210 -215 -230 -268 -301 -340 -362 0
24 -16 -28 -34 -108 -126 -127 -144 -157 -158 -183 -293 -294 -320 -374 0
24 -16 -28 -34 -81 -82 -96 -221 -243 -244 -269 -287 -288 -320 -342 0
-12 9 -25 -39 -82 -94 -163 -181 -209 -234 -252 -294 -300 -335 -366 0
321 -97 -120 -142 -155 -193 -223 -243 -253 -266 -287 -316 -345 -373 0
-83 2 -107 -141 -163 -168 -190 -213 -258 -263 -294 -296 -324 -353 0
-83 9 -106 -118 -147 -167 -203 -220 -238 -267 -281 -307 -346 -361 0
-70 6 -112 -140 -159 -175 -204 -213 -249 -275 -296 -312 -347 -360 0
-61 4 -105 -112 -119 -143 -193 -210 -219 -230 -268 -314 -327 -358 0
-51 6 -63 -96 -105 -119 -136 -160 -183 -194 -246 -346 -347 -374 0
145 -51 -67 -77 -104 -125 -141 -154 -179 -204 -269 -294 -347 -374 0
-40 6 -55 -62 -79 -96 -221 -242 -263 -290 -291 -314 -320 -347 0
-31 24 -108 -124 -141 -160 -177 -221 -241 -265 -290 -313 -342 -374 0
-31 9 -49 -55 -72 -86 -161 -162 -183 -202 -292 -293 -320 -345 0
-31 24 -108 -124 -142 -158 -178 -221 -241 -266 -288 -314 -342 -374 0
-83 4 -104 -123 -143 -165 -186 -215 -224 -238 -268 -300 -327 -352 0
-12 2 -22 -30 -34 -81 -82 -96 -162 -163 -183 -293 -294 -320 0
-113 51 -130 -162 -169 -192 -207 -237 -268 -288 -301 -330 -351 0
184 -113 -142 -157 -166 -195 -211 -242 -255 -273 -319 -341 -361 0
270 -113 -141 -158 -179 -216 -242 -258 -267 -294 -315 -340 -374 0
295 -97 -117 -137 -170 -188 -223 -243 -267 -287 -309 -341 -372 0
-70 9 -85 -225 -226 -243 -246 -269 -287 -288 -311 -320 -347 0
164 -70 -110 -112 -141 -161 -175 -208 -251 -278 -296 -338 -360 0
-70 8 -96 -135 -148 -176 -189 -240 -253 -272 -306 -325 -349 0
-51 1 -63 -96 -104 -120 -136 -160 -183 -194 -346 -347 -374 0
61 -51 -66 -72 -86 -224 -244 -245 -269 -286 -312 -313 -347 0
-40 16 -84 -106 -125 -166 -187 -215 -238 -265 -299 -326 -354 0
-31 24 -109 -111 -123 -125 -143 -162 -179 -246 -269 -294 -374 0
-24 4 -60 -94 -128 -181 -209 -215 -246 -252 -300 -335 -366 0
-12 9 -44 -59 -88 -99 -121 -158 -167 -190 -318 -346 -371 0
-12 9 -42 -58 -86 -101 -122 -141 -169 -190 -318 -345 -372 0
-12 6 -96 -98 -153 -169 -196 -207 -242 -279 -301 -334 -351 0
-12 6 -21 -42 -52 -78 -89 -221 -241 -267 -290 -314 -339 0
-12 1 -32 -103 -121 -147 -167 -219 -239 -267 -281 -307 -361 0
-12 2 -19 -44 -54 -67 -89 -221 -241 -266 -291 -313 -340 0
-12 1 -32 -80 -94 -161 -181 -211 -233 -272 -298 -334 -365 0
-12 4 -18 -60 -95 -102 -116 -137 -170 -198 -246 -319 -372 0
-1 9 -50 -57 -76 -161 -204 -211 -229 -272 -308 -330 -365 0
-1 9 -37 -111 -124 -156 -179 -211 -229 -272 -304 -339 -361 0
-6 4 -10 -106 -122 -134 -153 -218 -238 -257 -282 -316 -363 0
-6 4 -10 -49 -59 -64 -77 -223 -243 -262 -287 -316 -341 0
-6 4 -10 -29 -38 -68 -81 -223 -243 -262 -287 -315 -342 0
-6 2 -5 -47 -57 -67 -78 -221 -241 -265 -288 -316 -341 0
-6 4 -3 -23 -39 -109 -123 -141 -158 -179 -246 -294 -374 0
-6 9 -13 -22 -34 -81 -95 -221 -243 -266 -287 -313 -342 0
-6 4 -3 -48 -56 -67 -78 -222 -240 -265 -288 -316 -341 0
-6 4 -3 -48 -56 -67 -78 -128 -163 -204 -246 -294 -347 0
-6 9 -13 -22 -34 -108 -126 -142 -157 -177 -293 -319 -374 0
-6 2 -5 -108 -124 -141 -158 -212 -232 -256 -279 -341 -363 0
-4 2 -7 -105 -119 -136 -155 -217 -235 -259 -284 -316 -363 0
-4 2 -7 -48 -56 -66 -79 -222 -240 -264 -289 -316 -341 0
-4 2 -45 -53 -63 -105 -119 -136 -160 -194 -246 -346 -373 0
-4 2 -15 -20 -28 -60 -96 -222 -240 -264 -290 -314 -342 0
-4 2 -15 -20 -28 -109 -123 -140 -160 -178 -246 -320 -374 0
-2 9 -11 -108 -125 -139 -159 -212 -233 -254 -280 -341 -363 0
-2 9 -47 -58 -65 -101 -118 -132 -178 -194 -269 -347 -372 0
-2 9 -11 -47 -58 -65 -79 -221 -242 -263 -289 -316 -341 0
-2 9 -14 -22 -27 -69 -96 -221 -242 -263 -290 -314 -342 0
-2 9 -14 -22 -27 -108 -125 -139 -160 -178 -269 -320 -374 0
-2 9 -44 -55 -62 -104 -121 -135 -160 -194 -269 -346 -373 0
-8 6 -49 -64 -79 -143 -204 -208 -248 -275 -307 -329 -364 0
-8 2 -50 -66 -76 -161 -204 -210 -249 -271 -307 -329 -364 0
-1 9 -50 -57 -76 -103 -115 -147 -177 -193 -292 -347 -371 0
-12 2 -41 -65 -86 -101 -126 -137 -170 -189 -319 -344 -372 0
-129 40 -152 -166 -188 -222 -246 -258 -278 -298 -326 -349 0
-129 8 -147 -177 -193 -222 -246 -251 -271 -307 -329 -351 0
-129 24 -147 -170 -197 -222 -246 -254 -271 -300 -333 -351 0
270 -113 -141 -155 -168 -190 -222 -258 -278 -296 -324 -353 0
-113 1 -157 -165 -192 -211 -223 -246 -283 -297 -330 -351 0
348 -113 -137 -170 -188 -225 -243 -260 -275 -316 -339 -372 0
-97 6 -126 -137 -151 -169 -203 -294 -318 -320 -347 -374 0
-83 61 -98 -120 -144 -150 -176 -187 -319 -344 -347 -374 0
-70 6 -85 -105 -139 -150 -167 -185 -317 -319 -347 -370 0
-70 16 -110 -126 -138 -157 -179 -204 -268 -293 -347 -374 0
-61 8 -96 -104 -120 -136 -160 -183 -194 -346 -347 -374 0
70 -61 -79 -89 -222 -240 -266 -267 -294 -313 -314 -347 0
-51 24 -64 -77 -223 -224 -246 -262 -263 -294 -316 -341 0
-40 6 -55 -62 -79 -96 -144 -183 -204 -269 -320 -347 0
-40 6 -59 -88 -99 -121 -158 -167 -190 -318 -346 -371 0
-31 16 -81 -96 -162 -183 -207 -231 -279 -298 -334 -365 0
-31 9 -80 -94 -161 -181 -211 -233 -272 -298 -334 -365 0
-16 2 -60 -95 -102 -116 -137 -170 -198 -246 -319 -372 0
-16 4 -44 -54 -67 -89 -221 -241 -266 -291 -313 -340 0
-16 2 -45 -53 -67 -89 -222 -240 -266 -291 -313 -340 0
-113 16 -157 -165 -189 -214 -223 -246 -283 -297 -327 -351 0
-40 12 -58 -65 -101 -118 -132 -178 -194 -269 -347 -372 0
-113 61 -147 -183 -187 -215 -238 -266 -274 -320 -326 -354 0
-97 2 -125 -144 -154 -167 -190 -318 -320 -345 -347 -374 0
-61 1 -73 -90 -123 -131 -147 -171 -185 -294 -344 -369 0
-31 12 -80 -96 -103 -115 -154 -166 -197 -292 -320 -371 0
-83 8 -139 -153 -169 -187 -240 -257 -277 -299 -323 -349 0
-83 9 -111 -122 -168 -189 -218 -233 -288 -297 -324 -354 0
-97 4 -114 -140 -163 -170 -193 -246 -320 -345 -347 -374 0
-12 2 -22 -34 -108 -126 -142 -157 -177 -293 -319 -374 0
-12 6 -22 -27 -69 -96 -221 -242 -263 -290 -314 -342 0
-12 1 -20 -28 -60 -96 -222 -240 -264 -290 -314 -342 0
-12 2 -22 -34 -81 -95 -221 -243 -266 -287 -313 -342 0
-12 1 -20 -28 -109 -123 -140 -160 -178 -246 -320 -374 0
-12 6 -22 -27 -108 -125 -139 -160 -178 -269 -320 -374 0
-8 9 -106 -122 -134 -153 -218 -238 -257 -282 -316 -363 0
-8 9 -29 -38 -68 -81 -223 -243 -262 -287 -315 -342 0
-8 1 -47 -58 -65 -79 -221 -242 -263 -289 -316 -341 0
-8 9 -49 -59 -64 -77 -223 -243 -262 -287 -316 -341 0
-8 9 -29 -38 -110 -126 -138 -157 -179 -268 -293 -374 0
-1 6 -48 -56 -66 -79 -222 -240 -264 -289 -316 -341 0
-1 4 -104 -120 -137 -154 -216 -236 -260 -283 -316 -363 0
-1 6 -105 -119 -136 -155 -217 -235 -259 -284 -316 -363 0
-1 2 -23 -39 -109 -123 -141 -158 -179 -246 -294 -374 0
-1 2 -48 -56 -67 -78 -128 -163 -204 -246 -294 -347 0
-1 4 -47 -57 -67 -78 -221 -241 -265 -288 -316 -341 0
-1 2 -48 -56 -67 -78 -222 -240 -265 -288 -316 -341 0
-40 2 -78 -89 -98 -139 -153 -169 -187 -320 -345 -370 0
-40 9 -65 -86 -101 -126 -137 -170 -189 -319 -344 -372 0
184 -145 -183 -200 -208 -246 -254 -282 -300 -322 -364 0
295 -145 -171 -192 -223 -243 -267 -290 -311 -338 -372 0
-145 40 -196 -223 -243 -263 -266 -286 -316 -345 -373 0
-145 2 -173 -187 -224 -238 -250 -294 -305 -326 -354 0
270 -129 -159 -169 -188 -223 -233 -283 -298 -323 -354 0
295 -129 -155 -171 -192 -218 -242 -276 -297 -324 -357 0
-129 8 -148 -186 -215 -225 -239 -268 -278 -328 -357 0
-129 70 -174 -189 -218 -228 -268 -288 -304 -324 -354 0
-129 1 -178 -188 -208 -233 -268 -288 -308 -323 -354 0
-129 70 -170 -188 -213 -246 -258 -287 -298 -322 -353 0
-97 6 -122 -141 -163 -169 -190 -318 -345 -346 -374 0
-97 12 -122 -135 -154 -179 -204 -269 -294 -347 -374 0
-83 9 -106 -118 -158 -166 -187 -293 -317 -346 -371 0
-83 40 -100 -132 -153 -165 -196 -268 -294 -320 -370 0
-70 24 -108 -124 -141 -158 -179 -204 -294 -347 -374 0
-51 16 -67 -78 -96 -163 -183 -204 -294 -320 -347 0
-51 40 -96 -100 -114 -154 -170 -197 -246 -320 -371 0
-40 12 -58 -65 -79 -221 -242 -263 -289 -316 -341 0
-40 9 -65 -73 -88 -163 -183 -201 -294 -320 -344 0
-40 6 -54 -67 -89 -221 -241 -266 -291 -313 -340 0
-24 2 -35 -93 -180 -213 -249 -275 -296 -333 -364 0
-24 12 -38 -68 -81 -223 -243 -262 -287 -315 -342 0
-16 12 -39 -109 -123 -141 -158 -179 -246 -294 -374 0
-16 8 -27 -108 -125 -139 -160 -178 -269 -320 -374 0
-16 6 -28 -109 -123 -140 -160 -178 -246 -320 -374 0
-129 8 -147 -187 -215 -225 -239 -268 -277 -329 -357 0
-97 31 -141 -170 -188 -213 -258 -287 -298 -322 -353 0
-129 40 -147 -168 -191 -222 -258 -273 -300 -329 -349 0
-83 4 -101 -122 -141 -170 -189 -318 -319 -347 -372 0
-51 16 -64 -103 -117 -131 -178 -194 -268 -347 -372 0
-129 12 -166 -185 -219 -224 -246 -256 -301 -326 -352 0
-97 24 -151 -177 -186 -213 -263 -275 -307 -322 -351 0
-61 1 -106 -119 -135 -160 -194 -246 -269 -346 -373 0
-40 2 -52 -78 -89 -221 -241 -267 -290 -314 -339 0
-12 2 -19 -44 -54 -67 -89 -182 -203 -319 -346 0
-12 6 -21 -28 -108 -124 -140 -160 -178 -320 -374 0
-12 2 -19 -95 -101 -117 -137 -170 -198 -319 -372 0
-1 6 -23 -60 -100 -114 -151 -173 -197 -246 -371 0
-6 9 -38 -42 -55 -73 -91 -162 -202 -293 -345 0
-6 9 -38 -81 -99 -118 -148 -173 -197 -293 -371 0
-6 9 -38 -81 -162 -207 -231 -273 -304 -334 -365 0
-6 2 -5 -39 -82 -221 -241 -265 -288 -315 -342 0
-6 2 -5 -47 -57 -67 -78 -163 -204 -294 -347 0
-6 2 -5 -39 -108 -124 -141 -158 -179 -294 -374 0
-4 9 -29 -68 -103 -117 -131 -174 -198 -268 -372 0
-4 2 -7 -48 -56 -66 -79 -128 -204 -246 -347 0
-4 2 -7 -23 -109 -123 -140 -159 -179 -246 -374 0
-4 2 -7 -23 -60 -222 -240 -264 -289 -315 -342 0
-4 2 -15 -20 -28 -60 -96 -128 -183 -246 -320 0
-4 2 -23 -60 -102 -116 -133 -174 -198 -246 -372 0
-2 9 -11 -30 -69 -221 -242 -263 -289 -315 -342 0
-2 9 -14 -22 -27 -69 -96 -144 -183 -269 -320 0
-2 9 -11 -30 -108 -125 -139 -159 -179 -269 -374 0
-2 9 -11 -47 -58 -65 -79 -144 -204 -269 -347 0
-12 9 -25 -94 -101 -122 -133 -169 -198 -318 -372 0
321 -164 -197 -225 -240 -265 -287 -316 -339 -373 0
-164 9 -201 -211 -237 -269 -279 -297 -339 -351 0
-164 1 -192 -218 -228 -268 -288 -301 -330 -351 0
348 -164 -203 -217 -235 -259 -285 -309 -347 -368 0
-145 9 -176 -192 -211 -242 -272 -308 -330 -351 0
-145 9 -169 -196 -214 -242 -272 -301 -334 -351 0
-145 113 -204 -218 -238 -257 -282 -310 -347 -368 0
-129 9 -149 -166 -191 -269 -319 -343 -347 -374 0
-164 8 -191 -213 -244 -261 -291 -304 -347 -358 0
-164 16 -201 -216 -246 -250 -272 -302 -337 -349 0
-145 61 -170 -193 -206 -263 -282 -300 -329 -351 0
-145 51 -169 -187 -240 -253 -281 -299 -323 -349 0
-145 12 -166 -188 -217 -263 -278 -298 -326 -349 0
-145 2 -185 -220 -225 -234 -268 -279 -329 -355 0
-113 16 -155 -191 -218 -229 -276 -313 -323 -357 0
-113 1 -131 -155 -178 -203 -268 -320 -347 -374 0
-113 16 -134 -160 -183 -194 -268 -346 -347 -374 0
-113 12 -155 -192 -218 -228 -276 -313 -324 -357 0
-97 2 -118 -154 -177 -187 -293 -320 -347 -371 0
-97 40 -124 -141 -158 -179 -203 -294 -346 -374 0
-97 6 -117 -133 -163 -178 -194 -294 -347 -372 0
-97 40 -126 -140 -157 -179 -204 -293 -347 -374 0
-83 51 -99 -118 -154 -167 -197 -293 -320 -371 0
-70 51 -223 -224 -246 -262 -263 -294 -315 -342 0
-61 12 -103 -117 -131 -178 -194 -268 -347 -372 0
-51 1 -67 -89 -221 -241 -266 -291 -313 -340 0
-31 6 -93 -180 -213 -249 -275 -296 -333 -364 0
-31 4 -81 -95 -221 -243 -266 -287 -313 -342 0
-31 16 -68 -81 -223 -243 -262 -287 -315 -342 0
-24 8 -109 -123 -140 -160 -178 -246 -320 -374 0
-24 12 -68 -143 -208 -248 -275 -303 -333 -364 0
-24 1 -108 -125 -139 -160 -178 -269 -320 -374 0
-24 8 -60 -96 -222 -240 -264 -290 -314 -342 0
-16 12 -60 -100 -114 -151 -173 -197 -246 -371 0
-16 1 -28 -108 -124 -140 -160 -178 -320 -374 0
-16 4 -95 -101 -117 -137 -170 -198 -319 -372 0
-16 4 -44 -54 -67 -89 -182 -203 -319 -346 0
-145 1 -172 -185 -223 -237 -276 -304 -323 -351 0
-145 1 -172 -196 -228 -262 -274 -302 -332 -349 0
-164 6 -191 -208 -246 -258 -287 -300 -329 -349 0
-113 16 -160 -191 -211 -229 -283 -313 -323 -357 0
-97 12 -121 -142 -153 -194 -269 -294 -346 -373 0
-145 4 -176 -192 -230 -262 -272 -306 -328 -349 0
-164 12 -186 -217 -246 -263 -275 -303 -324 -349 0
-145 113 -169 -187 -235 -253 -286 -299 -323 -349 0
-145 4 -186 -215 -239 -244 -269 -278 -328 -357 0
-31 4 -108 -127 -141 -158 -176 -294 -318 -374 0
-12 6 -22 -27 -69 -96 -144 -183 -269 -320 0
-8 1 -30 -69 -221 -242 -263 -289 -315 -342 0
-8 1 -30 -108 -125 -139 -159 -179 -269 -374 0
-8 1 -47 -58 -65 -79 -144 -204 -269 -347 0
-1 6 -23 -60 -222 -240 -264 -289 -315 -342 0
-1 6 -23 -109 -123 -140 -159 -179 -246 -374 0
-1 6 -48 -56 -66 -79 -128 -204 -246 -347 0
-1 4 -47 -57 -67 -78 -163 -204 -294 -347 0
-1 4 -39 -108 -124 -141 -158 -179 -294 -374 0
-1 4 -39 -82 -221 -241 -265 -288 -315 -342 0
-16 1 -28 -96 -221 -241 -264 -290 -314 -342 0
-184 40 -208 -231 -268 -279 -313 -323 -361 0
-184 2 -225 -245 -265 -287 -311 -339 -373 0
-184 4 -224 -245 -266 -286 -313 -338 -373 0
-184 4 -209 -234 -260 -294 -314 -327 -353 0
-184 2 -215 -238 -251 -293 -314 -325 -354 0
-164 2 -200 -217 -251 -278 -298 -338 -349 0
-164 12 -188 -208 -237 -288 -304 -327 -350 0
-164 16 -201 -218 -231 -272 -304 -339 -351 0
-164 16 -185 -218 -231 -288 -304 -323 -351 0
-164 12 -185 -218 -231 -288 -304 -324 -350 0
184 -129 -157 -178 -197 -293 -320 -345 -374 0
-129 51 -156 -214 -234 -254 -277 -341 -363 0
-129 1 -190 -212 -239 -254 -290 -330 -358 0
-164 113 -211 -228 -269 -279 -298 -334 -365 0
-164 113 -211 -233 -269 -272 -298 -334 -365 0
-164 97 -191 -217 -249 -275 -312 -329 -349 0
-164 97 -188 -208 -258 -278 -312 -326 -349 0
-129 61 -157 -179 -204 -246 -293 -347 -374 0
-97 6 -118 -137 -169 -198 -269 -319 -372 0
-97 2 -115 -154 -177 -190 -320 -347 -371 0
-97 16 -119 -136 -160 -194 -246 -346 -373 0
-97 9 -139 -153 -169 -187 -320 -345 -370 0
-40 12 -57 -67 -78 -163 -204 -294 -347 0
-40 12 -58 -65 -79 -144 -204 -269 -347 0
-40 6 -54 -67 -89 -182 -203 -319 -346 0
-24 16 -69 -221 -242 -263 -289 -315 -342 0
-24 16 -108 -125 -139 -159 -179 -269 -374 0
-24 8 -108 -124 -140 -160 -178 -320 -374 0
-16 12 -109 -123 -140 -159 -179 -246 -374 0
-16 12 -60 -222 -240 -264 -289 -315 -342 0
-97 40 -125 -142 -159 -176 -269 -319 -374 0
-184 12 -208 -231 -269 -283 -313 -330 -350 0
-97 40 -127 -141 -158 -176 -294 -318 -374 0
-145 9 -187 -220 -244 -256 -277 -330 -356 0
-129 24 -153 -179 -204 -246 -293 -347 -374 0
-164 129 -190 -217 -248 -278 -312 -326 -351 0
-113 51 -138 -159 -179 -204 -268 -347 -374 0
-164 8 -221 -244 -263 -291 -313 -340 -374 0
-164 2 -188 -217 -254 -287 -298 -326 -349 0
-184 9 -214 -239 -266 -280 -328 -356 0
-184 9 -215 -231 -260 -314 -325 -353 0
-164 97 -210 -249 -278 -296 -333 -364 0
184 -129 -157 -179 -197 -293 -345 -374 0
-184 6 -218 -242 -279 -298 -323 -354 0
-184 129 -210 -258 -278 -296 -324 -364 0
-164 1 -218 -235 -261 -291 -307 -362 0
-184 8 -212 -232 -261 -290 -330 -358 0
-145 83 -178 -204 -246 -320 -347 -374 0
-113 16 -137 -160 -193 -294 -346 -373 0
-113 51 -138 -160 -178 -268 -320 -374 0
-97 40 -124 -140 -160 -178 -320 -374 0
-70 61 -221 -241 -265 -288 -315 -342 0
-61 51 -221 -242 -263 -289 -315 -342 0
-51 40 -222 -240 -264 -289 -315 -342 0
-31 24 -82 -96 -163 -183 -294 -320 0
-184 9 -218 -242 -276 -304 -324 -350 0
-164 51 -228 -253 -274 -296 -337 -359 0
-51 1 -67 -89 -182 -203 -319 -346 0
-113 4 -158 -170 -193 -320 -347 -371 0
-113 12 -136 -160 -194 -246 -346 -373 0
-113 51 -142 -158 -178 -294 -320 -374 0
295 -227 -253 -278 -305 -336 -367 0
-227 83 -258 -281 -316 -335 -374 0
-227 164 -265 -288 -316 -338 -372 0
-227 164 -263 -289 -316 -337 -372 0
-227 51 -263 -273 -300 -322 -356 0
-227 83 -266 -279 -303 -328 -373 0
-227 40 -262 -277 -297 -325 -349 0
-227 70 -265 -275 -320 -325 -354 0
-205 97 -245 -263 -288 -315 -340 0
-145 70 -174 -190 -345 -346 -374 0
-129 61 -159 -179 -204 -347 -374 0
-129 61 -160 -178 -246 -320 -374 0
-227 70 -265 -275 -320 -325 -358 0
-40 2 -52 -75 -91 -202 -345 0
-40 12 -57 -66 -79 -204 -347 0
-227 83 -258 -281 -316 -347 -361 0
-113 1 -137 -170 -198 -319 -372 0
-145 51 -178 -269 -294 -320 -374 0
-12 6 -21 -28 -96 -183 -320 0
-6 2 -5 -39 -82 -163 -294 0
-4 2 -7 -23 -60 -128 -246 0
-2 9 -11 -30 -69 -144 -269 0
321 -247 -283 -316 -333 -359 0
-247 51 -283 -309 -342 -374 0
-247 184 -288 -312 -337 -374 0
-247 184 -282 -308 -336 -374 0
-247 113 -278 -300 -322 -351 0
-247 164 -291 -313 -340 -374 0
-247 129 -279 -301 -324 -350 0
-247 24 -283 -301 -339 -350 0
-247 24 -283 -298 -339 -350 0
-247 31 -290 -303 -347 -355 0
-247 16 -290 -302 -347 -357 0
-247 2 -273 -304 -327 -361 0
-247 8 -273 -304 -339 -361 0
-247 8 -274 -314 -346 -353 0
321 -227 -294 -320 -343 -373 0
-184 164 -294 -320 -347 -374 0
184 -164 -203 -293 -320 -347 0
-164 70 -269 -294 -320 -374 0
-145 83 -178 -269 -320 -374 0
-129 24 -160 -194 -346 -373 0
-129 113 -183 -246 -269 -320 0
-247 16 -282 -300 -324 -349 0
184 -145 -201 -269 -294 -346 0
-184 145 -294 -320 -347 -374 0
145 -129 -162 -246 -269 -294 0
-83 70 -183 -204 -320 -347 0
-51 4 -75 -91 -202 -345 0
-51 16 -66 -79 -204 -347 0
-16 1 -28 -96 -183 -320 0
-113 1 -133 -174 -198 -372 0
-113 51 -140 -159 -179 -374 0
-8 1 -30 -69 -144 -269 0
-1 4 -39 -82 -163 -294 0
-1 6 -23 -60 -128 -246 0
321 -270 -344 -347 -374 0
321 -270 -316 -334 -360 0
-270 16 -298 -333 -353 0
-270 8 -305 -340 -362 0
-270 8 -314 -326 -362 0
-270 6 -301 -326 -366 0
-270 6 -301 -326 -362 0
-270 31 -301 -335 -353 0
-270 31 -301 -325 -353 0
-270 6 -305 -340 -353 0
-270 6 -314 -335 -353 0
-247 16 -290 -336 -357 0
-247 24 -277 -331 -356 0
321 -247 -293 -346 -373 0
321 -247 -292 -346 -373 0
-184 164 -246 -347 -374 0
184 -145 -202 -294 -346 0
-145 129 -246 -269 -294 0
-129 113 -204 -269 -347 0
-270 205 -296 -337 -359 0
-270 24 -301 -323 -351 0
321 -270 -316 -334 -362 0
-247 164 -277 -331 -363 0
-270 164 -314 -342 -373 0
348 -270 -313 -342 -366 0
-145 70 -179 -268 -374 0
-164 129 -203 -319 -346 0
-270 113 -314 -339 -373 0
-164 70 -246 -320 -374 0
-61 24 -79 -204 -347 0
-24 8 -96 -183 -320 0
-24 16 -69 -144 -269 0
-16 12 -60 -128 -246 0
-270 61 -313 -330 -351 0
295 -270 -302 -341 -356 0
-270 97 -313 -340 -374 0
-295 31 -330 -367 0
-295 1 -327 -352 0
321 -270 -317 -347 0
-164 145 -246 -320 0
-145 113 -246 -293 0
348 -295 -342 -367 0
-270 129 -316 -341 0
-70 31 -204 -347 0
-70 61 -163 -294 0
-61 51 -144 -269 0
-51 40 -128 -246 0
-295 24 -341 -356 0
-270 12 -330 -358 0
348 -321 -372 0
348 -321 -369 0
321 -295 -345 0
321 -295 -343 0
321 -295 -346 0
-295 227 -374 0
-270 247 -347 0
-295 184 -339 0
348 -321 -370 0
-164 83 -374 0
-113 97 -246 0
-321 83 -362 0
-348 270 0
-348 321 0
-321 295 0
-321 129 0
